c This is a random SAT instance with 10 variables and 20 clauses
p cnf 10 20
-3 -7 -8 5 9 0
1 8 -8 -2 -3 -9 -7 -5 3 5 0
-10 -2 6 -7 2 -3 0
9 4 -6 -9 0
-3 -10 3 2 -4 -1 0
-8 -7 0
4 -6 1 -8 5 7 -1 2 0
-7 1 -10 7 -6 6 10 0
-2 -4 -5 4 0
2 8 -10 1 3 -2 0
-9 2 10 1 4 3 5 8 -8 -2 0
8 5 0
8 -2 0
-9 -6 1 -1 -7 -3 -8 4 0
-2 -6 2 8 3 7 -10 0
-3 7 2 -8 -7 0
-7 1 10 -1 -4 7 -6 9 4 6 0
5 0
-2 -3 -8 4 -6 5 8 2 3 0
-6 -8 5 6 10 8 1 -9 -5 0